20
587 233 220
86 58 36
71 69 22
108 78 54
104 58 57
96 65 58
58 37 26
73 72 49
98 67 56
117 89 23
109 76 73
95 61 34
106 73 49
66 39 35
82 76 43
93 87 26
68 64 63
70 53 30
68 65 30
94 57 26
104 79 38
thpack7_46